(set-logic ALL)
(declare-fun var0 () String)
(assert (str.in_re var0 (re.++ (re.* (re.union (str.to_re "0") (str.to_re "1"))) (re.++ (re.* (re.union (str.to_re "222") (str.to_re "333"))) (re.++ (re.+ (re.union (str.to_re "444") (str.to_re "55"))) (re.++ (re.+ (re.union (str.to_re "6") (str.to_re "777"))) (re.++ (re.union (re.union (str.to_re "888") (str.to_re "9")) (re.union (str.to_re "aaa") (str.to_re "bbb"))) (re.++ (re.union (re.union (str.to_re "cc") (str.to_re "ddd")) (re.union (str.to_re "eee") (str.to_re "f"))) (re.++ (re.* (re.* (str.to_re "gg"))) (re.++ (re.+ (re.* (str.to_re "hh"))) (re.++ (re.* (re.+ (str.to_re "ii"))) (re.++ (re.+ (re.union (str.to_re "jjj") (str.to_re "k"))) (re.++ (re.+ (re.+ (str.to_re "ll"))) (re.++ (re.* (re.* (str.to_re "m"))) (re.++ (re.union (re.union (str.to_re "nn") (str.to_re "o")) (re.union (str.to_re "pp") (str.to_re "q"))) (re.++ (re.union (re.union (str.to_re "r") (str.to_re "s")) (re.union (str.to_re "t") (str.to_re "uu"))) (re.++ (re.+ (re.+ (str.to_re "vvv"))) (re.++ (re.union (re.union (str.to_re "w") (str.to_re "xxx")) (re.union (str.to_re "yyy") (str.to_re "zz"))) (re.++ (re.* (re.+ (str.to_re "AAA"))) (re.++ (re.+ (re.* (str.to_re "BB"))) (re.++ (re.union (re.* (str.to_re "CCC")) (re.* (str.to_re "DDD"))) (re.++ (re.* (re.* (str.to_re "EE"))) (re.++ (re.union (re.union (str.to_re "FF") (str.to_re "GG")) (re.union (str.to_re "H") (str.to_re "I"))) (re.++ (re.+ (re.union (str.to_re "JJJ") (str.to_re "K"))) (re.++ (re.+ (re.+ (str.to_re "LLL"))) (re.++ (re.+ (re.+ (str.to_re "MM"))) (re.++ (re.* (re.* (str.to_re "N"))) (re.++ (re.union (re.union (str.to_re "O") (str.to_re "PPP")) (re.union (str.to_re "Q") (str.to_re "RRR"))) (re.++ (re.+ (re.+ (str.to_re "SSS"))) (re.++ (re.+ (re.+ (str.to_re "TTT"))) (re.++ (re.+ (re.+ (str.to_re "UU"))) (re.++ (re.* (re.union (str.to_re "VVV") (str.to_re "WWW"))) (re.++ (re.* (re.union (str.to_re "XX") (str.to_re "YYY"))) (re.++ (re.+ (re.* (str.to_re "Z"))) (re.++ (re.+ (re.union (str.to_re "!") (str.to_re """"""""))) (re.++ (re.+ (re.* (str.to_re "###"))) (re.++ (re.* (re.+ (str.to_re "$$"))) (re.++ (re.* (re.union (str.to_re "%%%") (str.to_re "&&&"))) (re.++ (re.* (re.* (str.to_re "'''"))) (re.++ (re.* (re.+ (str.to_re "("))) (re.++ (re.* (re.* (str.to_re ")"))) (re.++ (re.union (re.+ (str.to_re "**")) (re.+ (str.to_re "++"))) (re.++ (re.+ (re.* (str.to_re ",,,"))) (re.++ (re.+ (re.* (str.to_re "--"))) (re.++ (re.union (re.* (str.to_re "..")) (re.* (str.to_re "//"))) (re.++ (re.union (re.union (str.to_re ":") (str.to_re ";")) (re.union (str.to_re "<<") (str.to_re "=="))) (re.++ (re.union (re.union (str.to_re ">") (str.to_re "??")) (re.union (str.to_re "@@") (str.to_re "[[["))) (re.++ (re.+ (re.* (str.to_re "\\\\"))) (re.++ (re.+ (re.* (str.to_re "]]]"))) (re.++ (re.union (re.* (str.to_re "^")) (re.* (str.to_re "__"))) (re.++ (re.* (re.union (str.to_re "``") (str.to_re "{"))) (re.++ (re.union (re.union (str.to_re "|") (str.to_re "}")) (re.union (str.to_re "~~~") (str.to_re "00"))) (re.++ (re.* (re.* (str.to_re "1"))) (re.++ (re.+ (re.* (str.to_re "222"))) (re.++ (re.* (re.* (str.to_re "333"))) (re.++ (re.* (re.* (str.to_re "444"))) (re.++ (re.union (re.+ (str.to_re "555")) (re.+ (str.to_re "66"))) (re.++ (re.union (re.* (str.to_re "777")) (re.* (str.to_re "88"))) (re.++ (re.union (re.union (str.to_re "9") (str.to_re "aa")) (re.union (str.to_re "bbb") (str.to_re "c"))) (re.++ (re.+ (re.+ (str.to_re "ddd"))) (re.++ (re.* (re.union (str.to_re "eee") (str.to_re "f"))) (re.++ (re.union (re.* (str.to_re "ggg")) (re.* (str.to_re "h"))) (re.++ (re.union (re.* (str.to_re "i")) (re.* (str.to_re "jjj"))) (re.++ (re.union (re.union (str.to_re "k") (str.to_re "l")) (re.union (str.to_re "mm") (str.to_re "nn"))) (re.++ (re.union (re.union (str.to_re "oo") (str.to_re "ppp")) (re.union (str.to_re "qqq") (str.to_re "rr"))) (re.++ (re.+ (re.union (str.to_re "ss") (str.to_re "t"))) (re.++ (re.+ (re.union (str.to_re "uuu") (str.to_re "vvv"))) (re.++ (re.union (re.* (str.to_re "ww")) (re.* (str.to_re "x"))) (re.++ (re.+ (re.union (str.to_re "yy") (str.to_re "z"))) (re.++ (re.+ (re.+ (str.to_re "AA"))) (re.++ (re.union (re.+ (str.to_re "BBB")) (re.+ (str.to_re "CCC"))) (re.++ (re.union (re.* (str.to_re "DDD")) (re.* (str.to_re "EE"))) (re.++ (re.* (re.* (str.to_re "F"))) (re.++ (re.union (re.union (str.to_re "GGG") (str.to_re "HHH")) (re.union (str.to_re "III") (str.to_re "JJ"))) (re.++ (re.* (re.union (str.to_re "KKK") (str.to_re "L"))) (re.++ (re.union (re.+ (str.to_re "MM")) (re.+ (str.to_re "N"))) (re.++ (re.* (re.+ (str.to_re "OOO"))) (re.++ (re.* (re.+ (str.to_re "PP"))) (re.++ (re.+ (re.+ (str.to_re "QQQ"))) (re.++ (re.union (re.union (str.to_re "RRR") (str.to_re "S")) (re.union (str.to_re "T") (str.to_re "UUU"))) (re.++ (re.union (re.* (str.to_re "VV")) (re.* (str.to_re "W"))) (re.++ (re.+ (re.union (str.to_re "X") (str.to_re "YYY"))) (re.+ (re.union (str.to_re "ZZ") (str.to_re "!!!")))))))))))))))))))))))))))))))))))))))))))))))))))))))))))))))))))))))))))))))))))))
(assert (not (str.in_re var0 (re.++ (re.* (re.union (str.to_re "0") (str.to_re "11"))) (re.++ (re.union (re.+ (str.to_re "2")) (re.+ (str.to_re "333"))) (re.++ (re.+ (re.* (str.to_re "4"))) (re.++ (re.* (re.+ (str.to_re "55"))) (re.++ (re.* (re.union (str.to_re "666") (str.to_re "7"))) (re.++ (re.+ (re.+ (str.to_re "888"))) (re.++ (re.* (re.* (str.to_re "999"))) (re.++ (re.* (re.* (str.to_re "a"))) (re.++ (re.+ (re.union (str.to_re "b") (str.to_re "cc"))) (re.++ (re.+ (re.* (str.to_re "d"))) (re.++ (re.* (re.* (str.to_re "ee"))) (re.++ (re.union (re.+ (str.to_re "f")) (re.+ (str.to_re "g"))) (re.++ (re.union (re.* (str.to_re "hh")) (re.* (str.to_re "ii"))) (re.++ (re.union (re.* (str.to_re "jjj")) (re.* (str.to_re "kk"))) (re.++ (re.+ (re.* (str.to_re "lll"))) (re.++ (re.* (re.* (str.to_re "mmm"))) (re.++ (re.* (re.* (str.to_re "n"))) (re.++ (re.union (re.union (str.to_re "oo") (str.to_re "pp")) (re.union (str.to_re "qq") (str.to_re "rrr"))) (re.++ (re.union (re.+ (str.to_re "s")) (re.+ (str.to_re "t"))) (re.++ (re.+ (re.union (str.to_re "uu") (str.to_re "v"))) (re.++ (re.* (re.+ (str.to_re "ww"))) (re.++ (re.+ (re.union (str.to_re "xx") (str.to_re "yyy"))) (re.++ (re.* (re.+ (str.to_re "zz"))) (re.++ (re.* (re.* (str.to_re "AAA"))) (re.++ (re.+ (re.union (str.to_re "BBB") (str.to_re "CC"))) (re.++ (re.union (re.union (str.to_re "D") (str.to_re "E")) (re.union (str.to_re "FF") (str.to_re "GGG"))) (re.++ (re.* (re.* (str.to_re "H"))) (re.++ (re.+ (re.union (str.to_re "II") (str.to_re "JJ"))) (re.++ (re.union (re.union (str.to_re "K") (str.to_re "LLL")) (re.union (str.to_re "M") (str.to_re "NNN"))) (re.++ (re.union (re.union (str.to_re "OO") (str.to_re "PP")) (re.union (str.to_re "QQQ") (str.to_re "R"))) (re.++ (re.union (re.union (str.to_re "SSS") (str.to_re "TT")) (re.union (str.to_re "U") (str.to_re "VVV"))) (re.++ (re.+ (re.+ (str.to_re "W"))) (re.++ (re.+ (re.+ (str.to_re "XXX"))) (re.++ (re.* (re.* (str.to_re "Y"))) (re.++ (re.union (re.* (str.to_re "ZZ")) (re.* (str.to_re "!!"))) (re.++ (re.+ (re.+ (str.to_re """"""""))) (re.++ (re.union (re.union (str.to_re "#") (str.to_re "$$")) (re.union (str.to_re "%%%") (str.to_re "&&"))) (re.++ (re.+ (re.union (str.to_re "''") (str.to_re "("))) (re.++ (re.union (re.* (str.to_re ")")) (re.* (str.to_re "*"))) (re.++ (re.+ (re.* (str.to_re "++"))) (re.++ (re.* (re.+ (str.to_re ",,,"))) (re.++ (re.* (re.* (str.to_re "---"))) (re.++ (re.* (re.+ (str.to_re ".."))) (re.++ (re.union (re.+ (str.to_re "//")) (re.+ (str.to_re ":"))) (re.++ (re.+ (re.+ (str.to_re ";;;"))) (re.++ (re.union (re.* (str.to_re "<<")) (re.* (str.to_re "=="))) (re.++ (re.* (re.+ (str.to_re ">>"))) (re.++ (re.union (re.* (str.to_re "???")) (re.* (str.to_re "@@@"))) (re.++ (re.union (re.* (str.to_re "[")) (re.* (str.to_re "\\\\"))) (re.++ (re.+ (re.* (str.to_re "]]]"))) (re.++ (re.* (re.+ (str.to_re "^^"))) (re.++ (re.union (re.+ (str.to_re "___")) (re.+ (str.to_re "``"))) (re.++ (re.+ (re.union (str.to_re "{{") (str.to_re "|||"))) (re.++ (re.+ (re.union (str.to_re "}") (str.to_re "~~"))) (re.++ (re.union (re.* (str.to_re "00")) (re.* (str.to_re "1"))) (re.++ (re.union (re.+ (str.to_re "22")) (re.+ (str.to_re "333"))) (re.++ (re.union (re.* (str.to_re "44")) (re.* (str.to_re "5"))) (re.++ (re.* (re.+ (str.to_re "6"))) (re.++ (re.union (re.union (str.to_re "77") (str.to_re "88")) (re.union (str.to_re "99") (str.to_re "a"))) (re.++ (re.* (re.union (str.to_re "bb") (str.to_re "c"))) (re.++ (re.+ (re.union (str.to_re "ddd") (str.to_re "eee"))) (re.++ (re.+ (re.* (str.to_re "fff"))) (re.++ (re.+ (re.+ (str.to_re "gg"))) (re.++ (re.union (re.* (str.to_re "hhh")) (re.* (str.to_re "iii"))) (re.++ (re.+ (re.* (str.to_re "jj"))) (re.++ (re.* (re.+ (str.to_re "kkk"))) (re.++ (re.union (re.+ (str.to_re "l")) (re.+ (str.to_re "mm"))) (re.++ (re.* (re.union (str.to_re "nnn") (str.to_re "oo"))) (re.++ (re.union (re.* (str.to_re "pp")) (re.* (str.to_re "qqq"))) (re.++ (re.+ (re.* (str.to_re "r"))) (re.++ (re.* (re.+ (str.to_re "ss"))) (re.++ (re.+ (re.union (str.to_re "tt") (str.to_re "u"))) (re.++ (re.* (re.* (str.to_re "vvv"))) (re.++ (re.union (re.union (str.to_re "w") (str.to_re "xx")) (re.union (str.to_re "yyy") (str.to_re "z"))) (re.++ (re.+ (re.* (str.to_re "AA"))) (re.++ (re.* (re.union (str.to_re "B") (str.to_re "CCC"))) (re.++ (re.union (re.union (str.to_re "DDD") (str.to_re "E")) (re.union (str.to_re "FF") (str.to_re "GGG"))) (re.++ (re.+ (re.* (str.to_re "HH"))) (re.++ (re.+ (re.+ (str.to_re "I"))) (re.++ (re.union (re.* (str.to_re "JJJ")) (re.* (str.to_re "KKK"))) (re.union (re.union (str.to_re "L") (str.to_re "M")) (re.union (str.to_re "NN") (str.to_re "O"))))))))))))))))))))))))))))))))))))))))))))))))))))))))))))))))))))))))))))))))))))))
(check-sat)